c Reduced graph for R100_1g generated by Cyril Grelier
p edge 98 503
e 1 6
e 1 10
e 1 16
e 1 26
e 1 27
e 1 31
e 1 40
e 1 55
e 1 58
e 1 59
e 1 72
e 1 76
e 1 80
e 1 90
e 1 93
e 2 18
e 2 24
e 2 27
e 2 30
e 2 31
e 2 42
e 2 45
e 2 50
e 2 70
e 2 72
e 2 74
e 2 82
e 2 84
e 2 90
e 2 91
e 3 8
e 3 9
e 3 14
e 3 16
e 3 28
e 3 35
e 3 51
e 3 71
e 3 73
e 3 79
e 3 85
e 3 88
e 3 91
e 3 92
e 3 97
e 4 12
e 4 13
e 4 18
e 4 20
e 4 29
e 4 31
e 4 44
e 4 47
e 4 50
e 4 67
e 4 71
e 4 75
e 4 77
e 4 82
e 5 6
e 5 10
e 5 17
e 5 23
e 5 25
e 5 38
e 5 43
e 5 47
e 5 60
e 5 71
e 5 75
e 5 80
e 5 86
e 5 91
e 6 11
e 6 24
e 6 46
e 6 50
e 6 62
e 6 69
e 6 77
e 6 78
e 6 86
e 6 91
e 7 15
e 7 17
e 7 18
e 7 38
e 7 50
e 7 52
e 7 66
e 7 67
e 7 72
e 7 81
e 7 97
e 8 16
e 8 25
e 8 26
e 8 39
e 8 47
e 8 49
e 8 51
e 8 53
e 8 60
e 9 20
e 9 43
e 9 54
e 9 57
e 9 65
e 9 68
e 9 69
e 9 84
e 9 85
e 10 21
e 10 23
e 10 35
e 10 53
e 10 71
e 10 79
e 10 86
e 11 18
e 11 19
e 11 23
e 11 46
e 11 54
e 11 87
e 11 88
e 12 23
e 12 33
e 12 47
e 12 61
e 12 67
e 12 93
e 12 95
e 13 17
e 13 28
e 13 58
e 13 74
e 13 79
e 13 89
e 13 92
e 14 16
e 14 23
e 14 40
e 14 43
e 14 65
e 14 90
e 15 29
e 15 31
e 15 52
e 15 66
e 15 68
e 15 74
e 16 17
e 16 18
e 16 19
e 16 27
e 16 47
e 16 53
e 16 59
e 16 63
e 16 78
e 16 79
e 16 82
e 16 87
e 16 88
e 16 92
e 17 19
e 17 20
e 17 35
e 17 43
e 17 51
e 17 54
e 17 56
e 17 58
e 17 66
e 17 82
e 17 84
e 17 86
e 17 89
e 18 28
e 18 47
e 18 48
e 18 55
e 18 61
e 18 67
e 18 70
e 18 77
e 18 81
e 18 88
e 18 90
e 19 20
e 19 21
e 19 23
e 19 28
e 19 29
e 19 51
e 19 52
e 19 56
e 19 66
e 19 74
e 19 94
e 20 34
e 20 38
e 20 45
e 20 58
e 20 59
e 20 79
e 20 82
e 20 87
e 20 96
e 21 24
e 21 25
e 21 36
e 21 46
e 21 60
e 21 63
e 21 71
e 21 81
e 21 82
e 21 97
e 22 29
e 22 33
e 22 37
e 22 46
e 22 49
e 22 57
e 22 61
e 22 66
e 22 81
e 22 89
e 22 92
e 22 98
e 23 30
e 23 35
e 23 45
e 23 74
e 23 80
e 24 32
e 24 41
e 24 46
e 24 52
e 24 54
e 24 68
e 24 87
e 24 95
e 25 26
e 25 28
e 25 44
e 25 46
e 25 53
e 25 83
e 25 84
e 25 90
e 26 35
e 26 37
e 26 48
e 26 65
e 26 71
e 26 81
e 26 82
e 26 98
e 27 30
e 27 36
e 27 43
e 27 44
e 27 66
e 27 73
e 27 81
e 28 51
e 28 73
e 28 89
e 28 92
e 28 94
e 29 55
e 29 63
e 29 68
e 29 70
e 29 86
e 29 87
e 30 39
e 30 48
e 30 66
e 30 71
e 30 79
e 30 85
e 30 88
e 31 32
e 31 58
e 31 70
e 31 85
e 31 89
e 32 44
e 32 45
e 32 46
e 32 61
e 32 77
e 32 83
e 32 97
e 33 36
e 33 44
e 33 74
e 33 75
e 33 84
e 33 85
e 33 87
e 34 43
e 34 50
e 34 54
e 34 60
e 34 72
e 34 80
e 34 86
e 34 90
e 35 43
e 35 48
e 35 85
e 36 40
e 36 72
e 36 80
e 36 81
e 36 82
e 37 42
e 37 43
e 37 67
e 37 68
e 37 96
e 38 66
e 38 79
e 38 80
e 38 84
e 39 45
e 39 48
e 39 55
e 39 83
e 40 49
e 40 79
e 40 84
e 41 51
e 41 58
e 41 66
e 41 67
e 41 72
e 42 69
e 42 80
e 42 92
e 42 98
e 43 51
e 43 53
e 43 59
e 43 71
e 43 76
e 43 78
e 43 80
e 43 84
e 43 85
e 43 87
e 44 48
e 44 62
e 44 67
e 44 70
e 44 76
e 44 79
e 44 90
e 44 91
e 45 49
e 45 50
e 45 52
e 45 64
e 45 68
e 45 75
e 45 87
e 46 54
e 46 69
e 46 73
e 46 96
e 47 67
e 47 78
e 47 83
e 47 85
e 47 86
e 48 70
e 48 74
e 48 80
e 48 81
e 48 89
e 49 56
e 49 69
e 49 79
e 49 80
e 49 81
e 49 95
e 49 96
e 50 52
e 50 54
e 50 68
e 50 73
e 51 62
e 51 80
e 51 88
e 52 73
e 52 78
e 52 84
e 52 86
e 53 66
e 53 72
e 53 81
e 53 88
e 53 95
e 54 67
e 54 89
e 55 61
e 55 67
e 55 68
e 55 86
e 55 98
e 56 63
e 56 70
e 56 76
e 56 79
e 56 83
e 56 87
e 57 68
e 57 69
e 57 70
e 57 80
e 57 84
e 57 93
e 57 97
e 58 91
e 58 94
e 59 60
e 59 88
e 59 95
e 59 97
e 60 93
e 61 76
e 62 63
e 62 85
e 62 92
e 64 68
e 64 73
e 64 79
e 64 85
e 65 88
e 66 67
e 66 69
e 66 70
e 66 75
e 66 79
e 66 82
e 66 89
e 66 93
e 66 94
e 66 98
e 67 68
e 67 91
e 67 96
e 67 98
e 68 93
e 68 94
e 69 73
e 69 79
e 69 87
e 69 94
e 69 96
e 70 89
e 70 91
e 71 74
e 71 76
e 72 75
e 72 79
e 72 81
e 73 79
e 73 82
e 74 81
e 75 76
e 75 95
e 76 89
e 77 84
e 77 89
e 77 94
e 78 90
e 78 95
e 80 82
e 80 83
e 80 93
e 80 94
e 81 85
e 81 86
e 82 83
e 82 93
e 83 85
e 83 86
e 83 91
e 83 93
e 83 94
e 83 95
e 84 86
e 87 88
e 87 96
e 88 90
e 92 96
e 92 97
